(set-info :source |printed by MathSAT|)
(declare-fun call_swimingpool.ite16 () Int)
(declare-fun env () Bool)
(declare-fun call_swimingpool.ite24 () Int)
(declare-fun x5 () Int)
(declare-fun call_swimingpool.ite27 () Int)
(declare-fun call_swimingpool.ite14 () Int)
(declare-fun call_swimingpool.flby8 () Int)
(declare-fun call_First4.flby () Int)
(declare-fun call_swimingpool.flby10 () Int)
(declare-fun x7 () Int)
(declare-fun call_swimingpool.x2 () Int)
(declare-fun call_swimingpool.ite32 () Int)
(declare-fun call_swimingpool.x6 () Int)
(declare-fun call_First.flby () Int)
(declare-fun call_swimingpool.ite4 () Int)
(declare-fun call_swimingpool.flby14 () Int)
(declare-fun call_swimingpool.ite30 () Int)
(declare-fun param_e1 () Bool)
(declare-fun call_First.First () Int)
(declare-fun call_swimingpool.ite6 () Int)
(declare-fun param_init_p2 () Int)
(declare-fun call_swimingpool.ite8 () Int)
(declare-fun call_Sofar.flby () Bool)
(declare-fun call_swimingpool.p2 () Int)
(declare-fun call_swimingpool.flby7 () Int)
(declare-fun call_swimingpool.x4 () Int)
(declare-fun call_First2.First () Int)
(declare-fun call_swimingpool.ite11 () Int)
(declare-fun call_swimingpool.ite21 () Int)
(declare-fun call_swimingpool.x5 () Int)
(declare-fun p2 () Int)
(declare-fun call_swimingpool.flby12 () Int)
(declare-fun call_swimingpool.ite13 () Int)
(declare-fun call_swimingpool.ite23 () Int)
(declare-fun call_swimingpool.ite3 () Int)
(declare-fun call_swimingpool.x7 () Int)
(declare-fun x6 () Int)
(declare-fun call_swimingpool.ite12 () Int)
(declare-fun call_swimingpool.p1 () Int)
(declare-fun param_e6 () Bool)
(declare-fun call_swimingpool.flby2 () Bool)
(declare-fun p1 () Int)
(declare-fun call_swimingpool.ite19 () Int)
(declare-fun call_swimingpool.ite22 () Int)
(declare-fun param_e4 () Bool)
(declare-fun call_swimingpool.ite25 () Int)
(declare-fun call_First3.flby () Int)
(declare-fun call_swimingpool.flby15 () Int)
(declare-fun call_swimingpool.flby () Bool)
(declare-fun param_e3 () Bool)
(declare-fun call_swimingpool.ite15 () Int)
(declare-fun param_init_p1 () Int)
(declare-fun param_e5 () Bool)
(declare-fun call_swimingpool.ite20 () Int)
(declare-fun call_swimingpool.ite5 () Int)
(declare-fun call_swimingpool.x1 () Int)
(declare-fun call_swimingpool.ite29 () Int)
(declare-fun call_swimingpool.g6 () Bool)
(declare-fun param_e2 () Bool)
(declare-fun call_swimingpool.flby9 () Int)
(declare-fun call_swimingpool.ite10 () Int)
(declare-fun call_swimingpool.flby4 () Bool)
(declare-fun call_First4.First () Int)
(declare-fun x2 () Int)
(declare-fun call_swimingpool.g5 () Bool)
(declare-fun call_excludes6.excludes () Bool)
(declare-fun call_swimingpool.ite31 () Int)
(declare-fun call_swimingpool.flby13 () Int)
(declare-fun call_swimingpool.flby5 () Bool)
(declare-fun call_swimingpool.ite26 () Int)
(declare-fun x3 () Int)
(declare-fun call_swimingpool.g4 () Bool)
(declare-fun x1 () Int)
(declare-fun call_swimingpool.ite () Int)
(declare-fun call_First3.First () Int)
(declare-fun call_swimingpool.ite9 () Int)
(declare-fun x4 () Int)
(declare-fun call_swimingpool.g3 () Bool)
(declare-fun call_Sofar.Sofar () Bool)
(declare-fun call_First2.flby () Int)
(declare-fun call_swimingpool.flby3 () Bool)
(declare-fun call_swimingpool.g2 () Bool)
(declare-fun call_swimingpool.ite17 () Int)
(declare-fun _OK_ () Bool)
(declare-fun call_swimingpool.ite2 () Int)
(declare-fun call_swimingpool.flby6 () Bool)
(declare-fun call_swimingpool.ite18 () Int)
(declare-fun call_swimingpool.ite28 () Int)
(declare-fun call_swimingpool.g1 () Bool)
(declare-fun call_swimingpool.x3 () Int)
(declare-fun call_swimingpool.ite7 () Int)
(declare-fun call_swimingpool.flby11 () Int)
(define-fun .def_1149 () Bool (= call_First4.flby call_First4.First))
(define-fun .def_1147 () Bool (= call_First3.flby call_First3.First))
(define-fun .def_1145 () Bool (= call_First2.flby call_First2.First))
(define-fun .def_1143 () Bool (= call_First.flby call_First.First))
(define-fun .def_1141 () Bool (= call_Sofar.flby call_Sofar.Sofar))
(define-fun .def_837 () Bool (not param_e2))
(define-fun .def_831 () Bool (not param_e3))
(define-fun .def_1128 () Bool (and .def_831 .def_837))
(define-fun .def_844 () Bool (not param_e4))
(define-fun .def_1129 () Bool (and .def_844 .def_1128))
(define-fun .def_851 () Bool (not param_e5))
(define-fun .def_1130 () Bool (and .def_851 .def_1129))
(define-fun .def_863 () Bool (not param_e6))
(define-fun .def_1131 () Bool (and .def_863 .def_1130))
(define-fun .def_985 () Bool (not param_e1))
(define-fun .def_1132 () Bool (or .def_985 .def_1131))
(define-fun .def_1123 () Bool (and .def_837 param_e1))
(define-fun .def_1124 () Bool (and .def_831 .def_1123))
(define-fun .def_1125 () Bool (and .def_844 .def_1124))
(define-fun .def_1126 () Bool (and .def_851 .def_1125))
(define-fun .def_1127 () Bool (and .def_863 .def_1126))
(define-fun .def_1133 () Bool (or .def_1127 .def_1132))
(define-fun .def_1118 () Bool (and param_e2 .def_985))
(define-fun .def_1119 () Bool (and .def_831 .def_1118))
(define-fun .def_1120 () Bool (and .def_844 .def_1119))
(define-fun .def_1121 () Bool (and .def_851 .def_1120))
(define-fun .def_1122 () Bool (and .def_863 .def_1121))
(define-fun .def_1134 () Bool (or .def_1122 .def_1133))
(define-fun .def_1104 () Bool (and .def_837 .def_985))
(define-fun .def_1114 () Bool (and param_e3 .def_1104))
(define-fun .def_1115 () Bool (and .def_844 .def_1114))
(define-fun .def_1116 () Bool (and .def_851 .def_1115))
(define-fun .def_1117 () Bool (and .def_863 .def_1116))
(define-fun .def_1135 () Bool (or .def_1117 .def_1134))
(define-fun .def_1105 () Bool (and .def_831 .def_1104))
(define-fun .def_1111 () Bool (and param_e4 .def_1105))
(define-fun .def_1112 () Bool (and .def_851 .def_1111))
(define-fun .def_1113 () Bool (and .def_863 .def_1112))
(define-fun .def_1136 () Bool (or .def_1113 .def_1135))
(define-fun .def_1106 () Bool (and .def_844 .def_1105))
(define-fun .def_1109 () Bool (and param_e5 .def_1106))
(define-fun .def_1110 () Bool (and .def_863 .def_1109))
(define-fun .def_1137 () Bool (or .def_1110 .def_1136))
(define-fun .def_1107 () Bool (and .def_851 .def_1106))
(define-fun .def_1108 () Bool (and param_e6 .def_1107))
(define-fun .def_1138 () Bool (or .def_1108 .def_1137))
(define-fun .def_1139 () Bool (= call_excludes6.excludes .def_1138))
(define-fun .def_1102 () Bool (= call_swimingpool.flby6 call_swimingpool.g6))
(define-fun .def_1099 () Bool (= call_swimingpool.flby5 call_swimingpool.g5))
(define-fun .def_1096 () Bool (= call_swimingpool.flby4 call_swimingpool.g4))
(define-fun .def_1093 () Bool (= call_swimingpool.flby3 call_swimingpool.g3))
(define-fun .def_1090 () Bool (= call_swimingpool.flby2 call_swimingpool.g2))
(define-fun .def_1087 () Bool (= call_swimingpool.flby call_swimingpool.g1))
(define-fun .def_1084 () Bool (= call_swimingpool.p2 call_swimingpool.flby15))
(define-fun .def_1082 () Bool (= call_swimingpool.p1 call_swimingpool.flby14))
(define-fun .def_1080 () Bool (= call_swimingpool.flby13 call_swimingpool.x7))
(define-fun .def_1078 () Bool (= call_swimingpool.flby12 call_swimingpool.x6))
(define-fun .def_1076 () Bool (= call_swimingpool.flby11 call_swimingpool.x5))
(define-fun .def_1074 () Bool (= call_swimingpool.flby10 call_swimingpool.x4))
(define-fun .def_1072 () Bool (= call_swimingpool.flby9 call_swimingpool.x3))
(define-fun .def_1070 () Bool (= call_swimingpool.flby8 call_swimingpool.x2))
(define-fun .def_1068 () Bool (= call_swimingpool.flby7 call_swimingpool.x1))
(define-fun .def_1066 () Bool (= x2 call_swimingpool.x2))
(define-fun .def_1062 () Bool (= x1 call_swimingpool.x1))
(define-fun .def_1055 () Bool (<= 1 x5))
(define-fun .def_1056 () Bool (not .def_1055))
(define-fun .def_1054 () Bool (not env))
(define-fun .def_1057 () Bool (or .def_1054 .def_1056))
(define-fun .def_1058 () Bool (= _OK_ .def_1057))
(define-fun .def_1049 () Bool (= call_swimingpool.ite20 call_swimingpool.ite17))
(define-fun .def_1050 () Bool (or .def_851 .def_1049))
(define-fun .def_1046 () Bool (= call_swimingpool.ite19 call_swimingpool.ite20))
(define-fun .def_1047 () Bool (or param_e5 .def_1046))
(define-fun .def_1051 () Bool (and .def_1047 .def_1050))
(define-fun .def_1041 () Bool (= call_swimingpool.ite25 call_swimingpool.ite26))
(define-fun .def_1042 () Bool (or param_e4 .def_1041))
(define-fun .def_1038 () Bool (= call_swimingpool.ite26 call_swimingpool.ite23))
(define-fun .def_1039 () Bool (or .def_844 .def_1038))
(define-fun .def_1034 () Bool (= call_swimingpool.ite16 call_swimingpool.ite13))
(define-fun .def_1035 () Bool (or .def_844 .def_1034))
(define-fun .def_1031 () Bool (= call_swimingpool.ite15 call_swimingpool.ite16))
(define-fun .def_1032 () Bool (or param_e4 .def_1031))
(define-fun .def_1036 () Bool (and .def_1032 .def_1035))
(define-fun .def_1040 () Bool (and .def_1036 .def_1039))
(define-fun .def_1043 () Bool (and .def_1040 .def_1042))
(define-fun .def_1026 () Bool (= call_swimingpool.ite27 call_swimingpool.ite26))
(define-fun .def_1027 () Bool (or param_e3 .def_1026))
(define-fun .def_1022 () Bool (= call_swimingpool.ite27 call_swimingpool.ite22))
(define-fun .def_1023 () Bool (or .def_831 .def_1022))
(define-fun .def_1018 () Bool (= call_swimingpool.ite12 call_swimingpool.ite9))
(define-fun .def_1019 () Bool (or .def_831 .def_1018))
(define-fun .def_1015 () Bool (= call_swimingpool.ite11 call_swimingpool.ite12))
(define-fun .def_1016 () Bool (or param_e3 .def_1015))
(define-fun .def_1020 () Bool (and .def_1016 .def_1019))
(define-fun .def_1024 () Bool (and .def_1020 .def_1023))
(define-fun .def_1028 () Bool (and .def_1024 .def_1027))
(define-fun .def_1010 () Bool (= call_swimingpool.ite31 call_swimingpool.ite32))
(define-fun .def_1011 () Bool (or param_e2 .def_1010))
(define-fun .def_1007 () Bool (= call_swimingpool.ite29 call_swimingpool.ite32))
(define-fun .def_1008 () Bool (or .def_837 .def_1007))
(define-fun .def_1002 () Bool (= call_swimingpool.ite8 call_swimingpool.ite5))
(define-fun .def_1003 () Bool (or .def_837 .def_1002))
(define-fun .def_999 () Bool (= call_swimingpool.ite7 call_swimingpool.ite8))
(define-fun .def_1000 () Bool (or param_e2 .def_999))
(define-fun .def_1004 () Bool (and .def_1000 .def_1003))
(define-fun .def_1009 () Bool (and .def_1004 .def_1008))
(define-fun .def_1012 () Bool (and .def_1009 .def_1011))
(define-fun .def_994 () Bool (= call_swimingpool.ite28 call_swimingpool.ite27))
(define-fun .def_995 () Bool (or param_e1 .def_994))
(define-fun .def_990 () Bool (= call_swimingpool.ite21 call_swimingpool.ite28))
(define-fun .def_991 () Bool (or .def_985 .def_990))
(define-fun .def_984 () Bool (= call_swimingpool.ite4 call_swimingpool.ite))
(define-fun .def_986 () Bool (or .def_984 .def_985))
(define-fun .def_980 () Bool (= call_swimingpool.ite3 call_swimingpool.ite4))
(define-fun .def_982 () Bool (or .def_980 param_e1))
(define-fun .def_987 () Bool (and .def_982 .def_986))
(define-fun .def_992 () Bool (and .def_987 .def_991))
(define-fun .def_996 () Bool (and .def_992 .def_995))
(define-fun .def_973 () Bool (<= 1000 call_First4.First))
(define-fun .def_974 () Bool (not .def_973))
(define-fun .def_969 () Bool (<= 1000 call_First3.First))
(define-fun .def_970 () Bool (not .def_969))
(define-fun .def_966 () Bool (<= 0 call_First2.First))
(define-fun .def_962 () Bool (<= 0 call_First.First))
(define-fun .def_964 () Bool (and .def_962 call_Sofar.Sofar))
(define-fun .def_967 () Bool (and .def_964 .def_966))
(define-fun .def_971 () Bool (and .def_967 .def_970))
(define-fun .def_975 () Bool (and .def_971 .def_974))
(define-fun .def_977 () Bool (= .def_975 env))
(define-fun .def_959 () Bool (= call_swimingpool.p2 p2))
(define-fun .def_956 () Bool (= call_swimingpool.p1 p1))
(define-fun .def_953 () Bool (= x7 call_swimingpool.x7))
(define-fun .def_949 () Bool (= x6 call_swimingpool.x6))
(define-fun .def_945 () Bool (= x5 call_swimingpool.x5))
(define-fun .def_941 () Bool (= x4 call_swimingpool.x4))
(define-fun .def_938 () Bool (= x3 call_swimingpool.x3))
(define-fun .def_942 () Bool (and .def_938 .def_941))
(define-fun .def_946 () Bool (and .def_942 .def_945))
(define-fun .def_950 () Bool (and .def_946 .def_949))
(define-fun .def_954 () Bool (and .def_950 .def_953))
(define-fun .def_957 () Bool (and .def_954 .def_956))
(define-fun .def_960 () Bool (and .def_957 .def_959))
(define-fun .def_978 () Bool (and .def_960 .def_977))
(define-fun .def_997 () Bool (and .def_978 .def_996))
(define-fun .def_1013 () Bool (and .def_997 .def_1012))
(define-fun .def_1029 () Bool (and .def_1013 .def_1028))
(define-fun .def_1044 () Bool (and .def_1029 .def_1043))
(define-fun .def_1052 () Bool (and .def_1044 .def_1051))
(define-fun .def_1059 () Bool (and .def_1052 .def_1058))
(define-fun .def_1063 () Bool (and .def_1059 .def_1062))
(define-fun .def_1067 () Bool (and .def_1063 .def_1066))
(define-fun .def_1069 () Bool (and .def_1067 .def_1068))
(define-fun .def_1071 () Bool (and .def_1069 .def_1070))
(define-fun .def_1073 () Bool (and .def_1071 .def_1072))
(define-fun .def_1075 () Bool (and .def_1073 .def_1074))
(define-fun .def_1077 () Bool (and .def_1075 .def_1076))
(define-fun .def_1079 () Bool (and .def_1077 .def_1078))
(define-fun .def_1081 () Bool (and .def_1079 .def_1080))
(define-fun .def_1083 () Bool (and .def_1081 .def_1082))
(define-fun .def_1085 () Bool (and .def_1083 .def_1084))
(define-fun .def_1088 () Bool (and .def_1085 .def_1087))
(define-fun .def_1091 () Bool (and .def_1088 .def_1090))
(define-fun .def_1094 () Bool (and .def_1091 .def_1093))
(define-fun .def_1097 () Bool (and .def_1094 .def_1096))
(define-fun .def_1100 () Bool (and .def_1097 .def_1099))
(define-fun .def_1103 () Bool (and .def_1100 .def_1102))
(define-fun .def_1140 () Bool (and .def_1103 .def_1139))
(define-fun .def_1142 () Bool (and .def_1140 .def_1141))
(define-fun .def_1144 () Bool (and .def_1142 .def_1143))
(define-fun .def_1146 () Bool (and .def_1144 .def_1145))
(define-fun .def_1148 () Bool (and .def_1146 .def_1147))
(define-fun .def_1150 () Bool (and .def_1148 .def_1149))
(define-fun .def_934 () Bool (= param_init_p2 call_First4.flby))
(define-fun .def_931 () Bool (= param_init_p1 call_First3.flby))
(define-fun .def_928 () Bool (= param_init_p2 call_First2.flby))
(define-fun .def_925 () Bool (= param_init_p1 call_First.flby))
(define-fun .def_922 () Bool (= call_excludes6.excludes call_Sofar.flby))
(define-fun .def_918 () Bool (= param_init_p2 call_swimingpool.flby15))
(define-fun .def_914 () Bool (= param_init_p1 call_swimingpool.flby14))
(define-fun .def_910 () Bool (= call_swimingpool.flby13 call_swimingpool.p2))
(define-fun .def_906 () Bool (= call_swimingpool.flby12 call_swimingpool.p1))
(define-fun .def_902 () Bool (= call_swimingpool.flby11 0))
(define-fun .def_899 () Bool (= call_swimingpool.flby10 0))
(define-fun .def_896 () Bool (= call_swimingpool.flby9 0))
(define-fun .def_893 () Bool (= call_swimingpool.flby8 0))
(define-fun .def_890 () Bool (= call_swimingpool.flby7 0))
(define-fun .def_887 () Bool (not call_swimingpool.flby6))
(define-fun .def_884 () Bool (not call_swimingpool.flby5))
(define-fun .def_881 () Bool (not call_swimingpool.flby4))
(define-fun .def_878 () Bool (not call_swimingpool.flby3))
(define-fun .def_875 () Bool (not call_swimingpool.flby2))
(define-fun .def_872 () Bool (not call_swimingpool.flby))
(define-fun .def_867 () Bool (= call_swimingpool.ite18 call_swimingpool.ite19))
(define-fun .def_868 () Bool (or .def_863 .def_867))
(define-fun .def_861 () Bool (= call_swimingpool.ite24 call_swimingpool.ite25))
(define-fun .def_864 () Bool (or .def_861 .def_863))
(define-fun .def_869 () Bool (and .def_864 .def_868))
(define-fun .def_855 () Bool (= call_swimingpool.ite14 call_swimingpool.ite15))
(define-fun .def_856 () Bool (or .def_851 .def_855))
(define-fun .def_849 () Bool (= call_swimingpool.ite30 call_swimingpool.ite31))
(define-fun .def_852 () Bool (or .def_849 .def_851))
(define-fun .def_857 () Bool (and .def_852 .def_856))
(define-fun .def_842 () Bool (= call_swimingpool.ite10 call_swimingpool.ite11))
(define-fun .def_845 () Bool (or .def_842 .def_844))
(define-fun .def_835 () Bool (= call_swimingpool.ite2 call_swimingpool.ite3))
(define-fun .def_838 () Bool (or .def_835 .def_837))
(define-fun .def_829 () Bool (= call_swimingpool.ite6 call_swimingpool.ite7))
(define-fun .def_832 () Bool (or .def_829 .def_831))
(define-fun .def_839 () Bool (and .def_832 .def_838))
(define-fun .def_846 () Bool (and .def_839 .def_845))
(define-fun .def_858 () Bool (and .def_846 .def_857))
(define-fun .def_870 () Bool (and .def_858 .def_869))
(define-fun .def_873 () Bool (and .def_870 .def_872))
(define-fun .def_876 () Bool (and .def_873 .def_875))
(define-fun .def_879 () Bool (and .def_876 .def_878))
(define-fun .def_882 () Bool (and .def_879 .def_881))
(define-fun .def_885 () Bool (and .def_882 .def_884))
(define-fun .def_888 () Bool (and .def_885 .def_887))
(define-fun .def_891 () Bool (and .def_888 .def_890))
(define-fun .def_894 () Bool (and .def_891 .def_893))
(define-fun .def_897 () Bool (and .def_894 .def_896))
(define-fun .def_900 () Bool (and .def_897 .def_899))
(define-fun .def_903 () Bool (and .def_900 .def_902))
(define-fun .def_907 () Bool (and .def_903 .def_906))
(define-fun .def_911 () Bool (and .def_907 .def_910))
(define-fun .def_915 () Bool (and .def_911 .def_914))
(define-fun .def_919 () Bool (and .def_915 .def_918))
(define-fun .def_923 () Bool (and .def_919 .def_922))
(define-fun .def_926 () Bool (and .def_923 .def_925))
(define-fun .def_929 () Bool (and .def_926 .def_928))
(define-fun .def_932 () Bool (and .def_929 .def_931))
(define-fun .def_935 () Bool (and .def_932 .def_934))
(define-fun .def_1151 () Bool (and .def_935 .def_1150))
(assert .def_1151)
